10J3M/DAT/10J3MULL-17.dat
10 3
17.833 17.833
43.8633 43.8633
35.4328 35.4328
4.4987 4.4987
44.9441 44.9441
28.2903 28.2903
47.8549 47.8549
26.4551 26.4551
0.0339 0.0339
14.4063 14.4063
87.8708