10J3M/SOL/10J3MULL-17.sol
solution status: optimal solution found
objective value:                              77.2064
x#1#3                                               1 	(obj:0)
x#2#3                                               1 	(obj:0)
x#3#1                               0.865077232420011 	(obj:0)
x#3#2                               0.134922767579989 	(obj:0)
x#4#1                                               1 	(obj:0)
x#5#2                                               1 	(obj:0)
x#6#1                                               1 	(obj:0)
x#7#3                                               1 	(obj:0)
x#8#2                               0.124827438276528 	(obj:0)
x#8#3                               0.875172561723472 	(obj:0)
x#9#2                                               1 	(obj:0)
x#10#1                                              1 	(obj:0)
z                                             77.2064 	(obj:1)
